0 0 0 0
0 1 1 0
0 2 2 0
0 3 2 0
0 4 1 4
0 5 1 9
0 6 0 13
0 7 0 15
0 8 1 7
0 9 2 16
0 10 0 9
0 11 1 9
0 12 0 15
0 13 2 13
0 14 2 15
0 15 2 23
0 16 2 7
0 17 0 13
0 18 2 32
0 19 2 16
0 20 1 23
0 21 2 24
0 22 2 16
0 23 2 16
0 24 1 33
0 25 2 39
0 26 2 26
0 27 0 35
0 28 2 33
0 29 2 45
0 30 0 40
0 31 0 47
